db/data/322422172026152282219818281292107326278.z3.out
sat
-------------------
.163436859
